
Gurobi 11.0.0 (win64) logging started Tue May 21 17:24:51 2024

Set parameter LogFile to value "./Results/StripPacking-ManyRuns/Logs/RU-111-StripPacking-15-0.log"
Set parameter TimeLimit to value 3600
Set parameter Cuts to value 1
Set parameter Presolve to value 1
Set parameter Heuristics to value 1
Set parameter LPWarmStart to value 2
Gurobi Optimizer version 11.0.0 build v11.0.0rc2 (win64 - Windows 10.0 (19045.2))

CPU model: Intel(R) Core(TM) i9-10980XE CPU @ 3.00GHz, instruction set [SSE2|AVX|AVX2|AVX512]
Thread count: 18 physical cores, 36 logical processors, using up to 18 threads

Optimize a model with 1590 rows, 451 columns and 4230 nonzeros
Model fingerprint: 0x21125acd
Variable types: 31 continuous, 420 integer (420 binary)
Coefficient statistics:
  Matrix range     [1e+00, 1e+04]
  Objective range  [1e+00, 1e+00]
  Bounds range     [1e+00, 1e+04]
  RHS range        [1e+00, 1e+04]

Warning: Completing partial solution with 420 unfixed non-continuous variables out of 420
User MIP start produced solution with objective 72 (0.00s)
User MIP start produced solution with objective 72 (0.00s)
Loaded user MIP start with objective 72

Presolve removed 210 rows and 0 columns
Presolve time: 0.01s
Presolved: 1380 rows, 451 columns, 4394 nonzeros
Variable types: 31 continuous, 420 integer (420 binary)

Root relaxation: objective 3.700000e+01, 366 iterations, 0.00 seconds (0.01 work units)

    Nodes    |    Current Node    |     Objective Bounds      |     Work
 Expl Unexpl |  Obj  Depth IntInf | Incumbent    BestBd   Gap | It/Node Time

     0     0   37.00000    0   30   72.00000   37.00000  48.6%     -    0s
H    0     0                      71.0000000   37.00000  47.9%     -    0s
     0     0   37.00000    0   53   71.00000   37.00000  47.9%     -    0s
     0     0   37.00000    0   50   71.00000   37.00000  47.9%     -    0s
     0     0   37.00000    0   32   71.00000   37.00000  47.9%     -    0s
     0     0   37.00000    0   34   71.00000   37.00000  47.9%     -    0s
     0     0   37.00000    0   24   71.00000   37.00000  47.9%     -    0s
H    0     0                      70.0000000   37.00000  47.1%     -    0s
     0     0   37.00000    0   27   70.00000   37.00000  47.1%     -    0s
     0     0   37.00000    0   29   70.00000   37.00000  47.1%     -    0s
H    0     0                      69.0000000   37.00000  46.4%     -    0s
     0     0   37.00000    0   29   69.00000   37.00000  46.4%     -    0s
     0     0   37.00000    0   30   69.00000   37.00000  46.4%     -    0s
     0     0   37.00000    0   20   69.00000   37.00000  46.4%     -    0s
     0     2   37.00000    0   18   69.00000   37.00000  46.4%     -    0s
H   81    84                      61.0000000   37.00000  39.3%  25.6    0s
H  162   145                      59.0000000   37.00000  37.3%  18.2    0s
H  207   199                      57.0000000   37.00000  35.1%  22.4    1s
H  216   199                      56.0000000   37.00000  33.9%  22.4    1s
H  366   335                      55.0000000   37.00000  32.7%  27.0    2s
H  644   574                      55.0000000   37.00000  32.7%  26.5    3s
H  645   574                      54.0000000   37.00000  31.5%  26.5    3s
H  656   574                      52.0000000   37.00000  28.8%  27.6    3s
  1014   923   37.00000   11   16   52.00000   37.00000  28.8%  27.0    5s
H 1079   923                      52.0000000   37.00000  28.8%  26.3    5s
H 1165   923                      50.0000000   37.00000  26.0%  26.1    5s
H 1302  1163                      50.0000000   37.00000  26.0%  26.4    7s
H 1636  1163                      49.0000000   37.00000  24.5%  26.3    7s
H 1979  1783                      49.0000000   37.00000  24.5%  24.6    8s
  3757  1821   37.00000   16   38   49.00000   37.00000  24.5%  25.1   10s
  4200  1934   46.00000   27   30   49.00000   37.00000  24.5%  26.9   16s
  4352  1978   47.00000   30   30   49.00000   37.00000  24.5%  27.8   20s
  4964  1917   47.00000   25   37   49.00000   37.00000  24.5%  30.5   25s
  5887  1795 infeasible   27        49.00000   37.00000  24.5%  35.0   31s
  7533  1552     cutoff   36        49.00000   37.00000  24.5%  40.9   36s
H 8225  1231                      48.0000000   37.00000  22.9%  42.3   36s
H 8336  1169                      48.0000000   37.00000  22.9%  42.5   38s
  8816  1086 infeasible   31        48.00000   37.00000  22.9%  44.3   41s
  9706  1178   43.00000   35   30   48.00000   37.00000  22.9%  46.4   46s
 11605  1411 infeasible   40        48.00000   37.00000  22.9%  50.7   50s
 12279  1512 infeasible   27        48.00000   37.00000  22.9%  51.3   55s
 14639  1646 infeasible   37        48.00000   37.00000  22.9%  55.6   62s
 15415  1807   46.00000   29   41   48.00000   37.00000  22.9%  56.0   66s
 16818  1906   41.00000   31   38   48.00000   37.00000  22.9%  57.1   71s
 17264  2069   37.15094   30   53   48.00000   37.00000  22.9%  57.6   75s
 19866  2241   43.00000   34   56   48.00000   37.00000  22.9%  59.2   80s
 21095  2307   39.00000   24   36   48.00000   37.00000  22.9%  59.3   86s
 21611  2297 infeasible   34        48.00000   37.00000  22.9%  59.8   92s
 21654  2277 infeasible   34        48.00000   37.00000  22.9%  59.9   95s
 21798  2282   39.00000   19   37   48.00000   37.00000  22.9%  59.9  100s
 22996  2362   39.00000   26   29   48.00000   38.00000  20.8%  59.7  107s
 23332  2289 infeasible   27        48.00000   38.00000  20.8%  59.7  112s
*27026  1930              34      47.0000000   39.00000  17.0%  59.1  112s
 27256  1899     cutoff   30        47.00000   39.00000  17.0%  59.1  116s
 28246  1909 infeasible   37        47.00000   39.00000  17.0%  59.0  124s
 28277  1831 infeasible   36        47.00000   39.00000  17.0%  59.0  127s
 29646  1823     cutoff   30        47.00000   40.00000  14.9%  59.1  131s
 29690  1768 infeasible   33        47.00000   41.00000  12.8%  59.1  135s
 31063  1774   46.00000   30   44   47.00000   41.00000  12.8%  58.6  140s
 33199  1699 infeasible   37        47.00000   42.00000  10.6%  58.6  147s
 33751  1358   46.00000   33   28   47.00000   43.00000  8.51%  58.7  150s
 35309  1371   46.00000   35   26   47.00000   43.00000  8.51%  58.3  160s
 37215  1133   46.00000   29   25   47.00000   43.00000  8.51%  57.5  167s
 37242   922   46.00000   30   20   47.00000   43.00000  8.51%  57.5  173s
 40905   918 infeasible   45        47.00000   43.00000  8.51%  57.2  179s
 40945   902 infeasible   33        47.00000   43.00000  8.51%  57.2  181s
 41059   888   46.00000   35   40   47.00000   46.00000  2.13%  57.2  188s
 41113   807 infeasible   36        47.00000   46.00000  2.13%  57.2  191s
 42319   806   46.00000   28   20   47.00000   46.00000  2.13%  56.8  198s
 42360   665   46.00000   29   19   47.00000   46.00000  2.13%  56.8  203s
 44440   659   46.00000   32   28   47.00000   46.00000  2.13%  56.4  208s
 44537   573 infeasible   26        47.00000   46.00000  2.13%  56.4  213s
 46098   541 infeasible   31        47.00000   46.00000  2.13%  55.9  219s
 46692   388   46.00000   32   29   47.00000   46.00000  2.13%  55.8  223s
 48805   310 infeasible   25        47.00000   46.00000  2.13%  55.4  229s
 49394   174   46.00000   24   28   47.00000   46.00000  2.13%  55.3  233s
 51162   171   46.00000   36   20   47.00000   46.00000  2.13%  55.0  240s
 51726    45 infeasible   27        47.00000   46.00000  2.13%  55.0  247s
 53128    48 infeasible   27        47.00000   46.00000  2.13%  54.9  253s
 53207     7   46.00000   24   29   47.00000   46.00000  2.13%  54.9  256s

Cutting planes:
  Learned: 1961
  Gomory: 11
  Cover: 76
  Implied bound: 9
  Clique: 14
  MIR: 173
  StrongCG: 10
  Flow cover: 268
  GUB cover: 38
  Zero half: 2
  Relax-and-lift: 66

Explored 53805 nodes (2954775 simplex iterations) in 259.18 seconds (247.05 work units)
Thread count was 18 (of 36 available processors)

Solution count 10: 47 47 48 ... 52

Optimal solution found (tolerance 1.00e-04)
Best objective 4.700000000000e+01, best bound 4.700000000000e+01, gap 0.0000%

Gurobi 11.0.0 (win64) logging started Tue Jun 18 11:32:07 2024

Set parameter LogFile to value "./Results/StripPacking-ManyRuns/Logs/RU-111-StripPacking-15-0.log"
Set parameter TimeLimit to value 3600
Set parameter Cuts to value 1
Set parameter Presolve to value 1
Set parameter Heuristics to value 1
Set parameter LPWarmStart to value 2
Gurobi Optimizer version 11.0.0 build v11.0.0rc2 (win64 - Windows 10.0 (19045.2))

CPU model: Intel(R) Core(TM) i9-10980XE CPU @ 3.00GHz, instruction set [SSE2|AVX|AVX2|AVX512]
Thread count: 18 physical cores, 36 logical processors, using up to 18 threads

Optimize a model with 1590 rows, 451 columns and 4230 nonzeros
Model fingerprint: 0xda35ff6a
Variable types: 31 continuous, 420 integer (420 binary)
Coefficient statistics:
  Matrix range     [1e+00, 1e+04]
  Objective range  [1e+00, 1e+00]
  Bounds range     [1e+00, 1e+04]
  RHS range        [1e+00, 1e+04]

Warning: Completing partial solution with 420 unfixed non-continuous variables out of 420
User MIP start produced solution with objective 62.1 (0.01s)
User MIP start produced solution with objective 62.1 (0.01s)
Loaded user MIP start with objective 62.1

Presolve removed 210 rows and 0 columns
Presolve time: 0.00s
Presolved: 1380 rows, 451 columns, 4393 nonzeros
Variable types: 31 continuous, 420 integer (420 binary)

Root relaxation: objective 3.200000e+01, 406 iterations, 0.02 seconds (0.01 work units)

    Nodes    |    Current Node    |     Objective Bounds      |     Work
 Expl Unexpl |  Obj  Depth IntInf | Incumbent    BestBd   Gap | It/Node Time

     0     0   32.00000    0   36   62.10000   32.00000  48.5%     -    0s
H    0     0                      61.0000000   32.00000  47.5%     -    0s
     0     0   32.00000    0   54   61.00000   32.00000  47.5%     -    0s
     0     0   32.00000    0   50   61.00000   32.00000  47.5%     -    0s
     0     0   32.00000    0   27   61.00000   32.00000  47.5%     -    0s
     0     0   32.00000    0   31   61.00000   32.00000  47.5%     -    0s
     0     0   32.00000    0   35   61.00000   32.00000  47.5%     -    0s
     0     0   32.00000    0   37   61.00000   32.00000  47.5%     -    0s
     0     0   32.00000    0   28   61.00000   32.00000  47.5%     -    0s
     0     0   32.00000    0   27   61.00000   32.00000  47.5%     -    0s
     0     0   32.00000    0   33   61.00000   32.00000  47.5%     -    0s
     0     0   32.00000    0   33   61.00000   32.00000  47.5%     -    0s
     0     2   32.00000    0   32   61.00000   32.00000  47.5%     -    0s
H   85   102                      59.0000000   32.00000  45.8%  22.1    0s
H  103   126                      57.0000000   32.00000  43.9%  22.2    1s
H  129   145                      56.0000000   32.00000  42.9%  22.1    1s
H  185   197                      54.0000000   32.00000  40.7%  21.9    4s
   254   266   32.00000   15   64   54.00000   32.00000  40.7%  21.9    6s
H  258   266                      53.0000000   32.00000  39.6%  21.7    6s
H  260   266                      50.0000000   32.00000  36.0%  21.7    6s
H  272   281                      50.0000000   32.00000  36.0%  21.7    9s
   365   370   32.00000   19   62   50.00000   32.00000  36.0%  21.3   10s
H  369   370                      48.0000000   32.00000  33.3%  21.2   10s
   890  1057 infeasible   40        48.00000   32.00000  33.3%  22.6   16s
H 1862  1284                      48.0000000   32.00000  33.3%  21.2   17s
  2018  1319 infeasible   68        48.00000   32.00000  33.3%  21.1   21s
H 2528  1803                      47.0000000   32.00000  31.9%  20.5   22s
  3328  2064 infeasible   37        47.00000   32.00000  31.9%  21.1   25s
  4206  2283   32.16245   28   70   47.00000   32.00000  31.9%  27.0   30s
  4430  2364   39.00000   34   42   47.00000   32.00000  31.9%  28.2   35s
* 4652  2190              36      46.0000000   32.00000  30.4%  28.8   36s
* 5048  2079              41      45.0000000   32.00000  28.9%  30.6   38s
  5098  2134 infeasible   27        45.00000   32.00000  28.9%  30.8   40s
  5779  1981   38.00000   31   50   45.00000   32.00000  28.9%  35.4   45s
  6152  1857   38.00000   28   49   45.00000   32.00000  28.9%  37.7   50s
  6658  1723 infeasible   22        45.00000   32.00000  28.9%  39.6   55s
  7110  1514 infeasible   33        45.00000   32.00000  28.9%  41.6   61s
  7721  1237 infeasible   25        45.00000   32.00000  28.9%  42.8   67s
  8208  1007   38.00000   27   50   45.00000   32.00000  28.9%  43.2   70s
  9183   593 infeasible   38        45.00000   34.00000  24.4%  44.6   76s
  9943   391   38.00000   33   55   45.00000   38.00000  15.6%  45.1   81s
 10601   258 infeasible   32        45.00000   41.00000  8.89%  45.1   86s
 10984   104   43.00000   29   31   45.00000   41.00000  8.89%  45.1   90s

Cutting planes:
  Learned: 792
  Gomory: 15
  Cover: 59
  Implied bound: 8
  Clique: 5
  MIR: 105
  StrongCG: 4
  Flow cover: 186
  GUB cover: 27
  Zero half: 5
  RLT: 4
  Relax-and-lift: 61

Explored 11458 nodes (517996 simplex iterations) in 92.62 seconds (68.46 work units)
Thread count was 18 (of 36 available processors)

Solution count 10: 45 46 47 ... 56

Optimal solution found (tolerance 1.00e-04)
Best objective 4.500000000000e+01, best bound 4.500000000000e+01, gap 0.0000%

Gurobi 11.0.0 (win64) logging started Tue Jul  2 17:21:35 2024

Set parameter LogFile to value "./Results/StripPacking-ManyRuns/Logs/RU-111-StripPacking-15-0.log"
Set parameter TimeLimit to value 3600
Set parameter Cuts to value 1
Set parameter Presolve to value 1
Set parameter Heuristics to value 1
Set parameter LPWarmStart to value 2
Gurobi Optimizer version 11.0.0 build v11.0.0rc2 (win64 - Windows 10.0 (19045.2))

CPU model: Intel(R) Core(TM) i9-10980XE CPU @ 3.00GHz, instruction set [SSE2|AVX|AVX2|AVX512]
Thread count: 18 physical cores, 36 logical processors, using up to 18 threads

Optimize a model with 1590 rows, 451 columns and 4230 nonzeros
Model fingerprint: 0xda35ff6a
Variable types: 31 continuous, 420 integer (420 binary)
Coefficient statistics:
  Matrix range     [1e+00, 1e+04]
  Objective range  [1e+00, 1e+00]
  Bounds range     [1e+00, 1e+04]
  RHS range        [1e+00, 1e+04]

Warning: Completing partial solution with 420 unfixed non-continuous variables out of 420
User MIP start produced solution with objective 62.1 (0.00s)
User MIP start produced solution with objective 62.1 (0.00s)
Loaded user MIP start with objective 62.1

Presolve removed 210 rows and 0 columns
Presolve time: 0.00s
Presolved: 1380 rows, 451 columns, 4393 nonzeros
Variable types: 31 continuous, 420 integer (420 binary)

Root relaxation: objective 3.200000e+01, 406 iterations, 0.02 seconds (0.01 work units)

    Nodes    |    Current Node    |     Objective Bounds      |     Work
 Expl Unexpl |  Obj  Depth IntInf | Incumbent    BestBd   Gap | It/Node Time

     0     0   32.00000    0   36   62.10000   32.00000  48.5%     -    0s
H    0     0                      61.0000000   32.00000  47.5%     -    0s
     0     0   32.00000    0   54   61.00000   32.00000  47.5%     -    0s
     0     0   32.00000    0   50   61.00000   32.00000  47.5%     -    0s
     0     0   32.00000    0   27   61.00000   32.00000  47.5%     -    0s
     0     0   32.00000    0   31   61.00000   32.00000  47.5%     -    0s
     0     0   32.00000    0   35   61.00000   32.00000  47.5%     -    0s
     0     0   32.00000    0   37   61.00000   32.00000  47.5%     -    0s
     0     0   32.00000    0   28   61.00000   32.00000  47.5%     -    0s
     0     0   32.00000    0   27   61.00000   32.00000  47.5%     -    0s
     0     0   32.00000    0   33   61.00000   32.00000  47.5%     -    0s
     0     0   32.00000    0   33   61.00000   32.00000  47.5%     -    0s
     0     2   32.00000    0   32   61.00000   32.00000  47.5%     -    0s
H   85   102                      59.0000000   32.00000  45.8%  22.1    0s
H  103   126                      57.0000000   32.00000  43.9%  22.2    0s
H  129   145                      56.0000000   32.00000  42.9%  22.1    1s
H  185   197                      54.0000000   32.00000  40.7%  21.9    4s
   254   266   32.00000   15   64   54.00000   32.00000  40.7%  21.9    6s
H  258   266                      53.0000000   32.00000  39.6%  21.7    6s
H  260   266                      50.0000000   32.00000  36.0%  21.7    6s
H  272   281                      50.0000000   32.00000  36.0%  21.7    9s
   365   370   32.00000   19   62   50.00000   32.00000  36.0%  21.3   10s
H  369   370                      48.0000000   32.00000  33.3%  21.2   10s
   890  1057 infeasible   40        48.00000   32.00000  33.3%  22.6   15s
H 1862  1284                      48.0000000   32.00000  33.3%  21.2   17s
  2018  1319 infeasible   68        48.00000   32.00000  33.3%  21.1   20s
H 2528  1803                      47.0000000   32.00000  31.9%  20.5   21s
  3900  2068   40.00000   34   27   47.00000   32.00000  31.9%  21.6   25s
  4272  2275   45.00000   30   45   47.00000   32.00000  31.9%  27.3   30s
  4638  2300 infeasible   40        47.00000   32.00000  31.9%  28.7   35s
* 4652  2190              36      46.0000000   32.00000  30.4%  28.8   35s
* 5048  2079              41      45.0000000   32.00000  28.9%  30.6   37s
  5465  2018   32.12011   24   66   45.00000   32.00000  28.9%  33.0   40s
  5808  1972 infeasible   31        45.00000   32.00000  28.9%  35.6   45s
  6182  1856   38.00000   29   52   45.00000   32.00000  28.9%  37.8   51s
  7068  1580     cutoff   30        45.00000   32.00000  28.9%  41.4   57s
  7567  1328   36.00000   24   51   45.00000   32.00000  28.9%  42.5   63s
  7721  1237 infeasible   25        45.00000   32.00000  28.9%  42.8   66s
  8675   841 infeasible   35        45.00000   32.41109  28.0%  43.8   70s
  9539   392 infeasible   26        45.00000   38.00000  15.6%  44.9   77s
  9943   391   38.00000   33   55   45.00000   38.00000  15.6%  45.1   80s
 10601   258 infeasible   32        45.00000   41.00000  8.89%  45.1   85s
 11225     5     cutoff   31        45.00000   41.00000  8.89%  44.9   90s

Cutting planes:
  Learned: 792
  Gomory: 15
  Cover: 59
  Implied bound: 8
  Clique: 5
  MIR: 105
  StrongCG: 4
  Flow cover: 186
  GUB cover: 27
  Zero half: 5
  RLT: 4
  Relax-and-lift: 61

Explored 11458 nodes (517996 simplex iterations) in 91.33 seconds (68.46 work units)
Thread count was 18 (of 36 available processors)

Solution count 10: 45 46 47 ... 56

Optimal solution found (tolerance 1.00e-04)
Best objective 4.500000000000e+01, best bound 4.500000000000e+01, gap 0.0000%
